60
1 0 10
3 0 1
3 1 5
4 0 5
4 1 5
4 2 8
4 3 9
5 0 4
5 1 8
5 2 4
5 3 8
5 4 2
6 0 6
6 1 2
6 2 6
6 3 4
6 4 1
6 5 5
7 0 10
7 1 1
7 2 5
7 3 1
7 5 5
7 6 8
8 0 2
8 1 3
8 4 8
8 5 4
8 6 5
9 1 9
9 2 7
9 3 7
9 6 9
9 8 1
10 0 6
10 1 9
10 3 5
10 4 4
10 5 1
10 6 8
10 7 4
10 8 6
11 0 7
11 1 8
11 2 10
11 3 1
11 6 6
11 8 4
11 9 3
12 0 4
12 2 5
12 4 4
12 6 2
12 10 8
12 11 7
13 0 9
13 1 9
13 2 5
13 4 2
13 6 4
13 7 1
13 8 10
13 9 2
13 10 10
13 11 6
13 12 1
14 2 2
14 3 3
14 4 4
14 5 5
14 6 5
14 8 7
14 9 7
14 10 10
14 11 5
14 12 2
15 1 7
15 2 3
15 3 1
15 4 5
15 5 1
15 7 5
15 8 3
15 9 2
15 10 8
15 13 4
15 14 5
16 0 2
16 1 9
16 2 2
16 3 5
16 6 7
16 7 7
16 9 9
16 10 1
16 12 10
16 13 10
16 15 6
17 0 8
17 2 6
17 4 5
17 6 9
17 8 5
17 9 10
17 10 9
17 11 2
17 12 2
17 13 5
17 15 5
18 0 2
18 1 5
18 3 4
18 4 3
18 5 1
18 6 8
18 7 6
18 8 9
18 10 7
18 12 7
18 13 2
18 14 1
18 15 5
18 16 3
18 17 4
19 0 8
19 1 5
19 2 9
19 3 10
19 5 3
19 6 1
19 7 4
19 9 5
19 11 3
19 12 8
19 13 1
19 14 9
19 15 7
19 16 1
19 17 9
19 18 8
20 1 3
20 5 8
20 6 4
20 8 1
20 9 9
20 12 3
20 13 1
20 15 6
20 16 9
20 19 8
21 0 3
21 1 8
21 2 1
21 3 5
21 4 2
21 5 5
21 6 3
21 8 5
21 9 4
21 10 4
21 11 6
21 12 9
21 13 3
21 15 5
21 17 6
21 18 4
21 20 5
22 1 6
22 4 10
22 6 4
22 7 5
22 8 2
22 10 9
22 11 10
22 12 8
22 14 2
22 15 3
22 16 6
22 17 6
22 18 10
22 19 1
22 20 10
22 21 4
23 1 7
23 2 5
23 4 6
23 7 9
23 8 4
23 10 3
23 11 3
23 12 4
23 13 5
23 14 9
23 17 4
23 18 5
23 19 3
23 20 7
23 22 4
24 1 7
24 2 6
24 3 5
24 4 4
24 5 2
24 8 4
24 9 10
24 10 2
24 11 5
24 12 9
24 13 2
24 14 4
24 16 9
24 17 7
24 19 1
24 20 3
24 21 3
24 23 2
25 0 5
25 2 7
25 3 4
25 4 9
25 5 1
25 6 3
25 7 3
25 8 3
25 10 6
25 13 1
25 14 2
25 15 4
25 17 7
25 18 2
25 19 3
25 20 1
25 22 7
26 0 9
26 1 4
26 2 3
26 3 2
26 4 1
26 5 1
26 6 3
26 7 4
26 8 3
26 10 1
26 11 6
26 12 10
26 13 7
26 17 8
26 18 3
26 20 7
26 21 8
26 23 5
26 24 6
27 0 1
27 1 5
27 3 3
27 5 1
27 7 10
27 8 8
27 9 4
27 10 6
27 11 1
27 12 8
27 15 8
27 16 8
27 17 8
27 18 8
27 19 2
27 21 3
27 22 4
27 23 1
27 24 3
27 25 1
27 26 8
28 0 10
28 1 10
28 2 1
28 3 5
28 5 2
28 6 5
28 8 8
28 9 9
28 11 3
28 13 9
28 14 9
28 15 2
28 18 4
28 19 1
28 20 5
28 21 2
28 22 8
28 25 9
28 27 3
29 1 10
29 2 2
29 3 8
29 4 6
29 5 5
29 6 5
29 7 10
29 8 8
29 9 2
29 10 7
29 11 6
29 12 6
29 13 9
29 15 7
29 16 4
29 18 1
29 19 1
29 20 6
29 21 8
29 23 7
29 27 10
29 28 5
30 0 7
30 2 8
30 3 8
30 4 6
30 6 2
30 9 2
30 10 1
30 13 1
30 15 5
30 16 9
30 17 8
30 18 4
30 19 10
30 20 4
30 21 2
30 22 5
30 23 6
30 24 5
30 25 5
30 26 2
30 27 8
30 28 1
31 0 10
31 1 5
31 5 3
31 6 8
31 7 7
31 8 2
31 9 9
31 10 10
31 11 1
31 12 5
31 13 3
31 15 5
31 16 6
31 17 1
31 18 3
31 19 8
31 20 9
31 21 1
31 22 2
31 23 9
31 24 4
31 26 4
31 27 10
32 0 9
32 1 9
32 2 5
32 4 5
32 5 9
32 6 1
32 7 2
32 8 10
32 9 4
32 10 3
32 13 8
32 14 7
32 16 10
32 18 3
32 19 1
32 20 4
32 21 6
32 22 2
32 23 6
32 24 6
32 25 7
32 28 9
32 29 9
32 30 6
32 31 4
33 2 9
33 4 2
33 5 5
33 6 9
33 7 6
33 9 7
33 10 3
33 11 6
33 12 8
33 13 4
33 14 3
33 15 3
33 16 10
33 17 4
33 18 1
33 19 8
33 25 4
33 27 1
33 28 6
33 29 6
33 31 5
33 32 6
34 0 1
34 3 2
34 4 3
34 8 5
34 9 7
34 10 2
34 12 3
34 13 5
34 14 10
34 15 10
34 16 1
34 18 2
34 21 3
34 22 9
34 26 1
34 27 2
34 29 4
34 30 5
34 31 1
34 32 5
34 33 2
35 0 3
35 2 7
35 6 1
35 7 4
35 9 8
35 10 6
35 11 3
35 14 5
35 16 7
35 19 6
35 20 5
35 21 6
35 23 3
35 24 8
35 25 4
35 28 5
35 29 9
35 30 1
35 32 10
35 33 5
36 1 3
36 2 5
36 3 4
36 4 8
36 6 9
36 7 1
36 8 9
36 9 8
36 10 4
36 12 6
36 14 4
36 15 6
36 16 3
36 23 10
36 24 4
36 25 8
36 27 2
36 28 8
36 30 2
36 32 10
36 34 1
36 35 7
37 0 5
37 2 8
37 3 3
37 4 5
37 6 10
37 7 10
37 8 5
37 9 10
37 10 7
37 11 10
37 13 3
37 14 2
37 15 7
37 17 3
37 18 4
37 19 1
37 21 9
37 22 7
37 23 7
37 24 1
37 26 6
37 27 8
37 28 8
37 30 8
37 31 7
37 32 10
37 33 6
37 36 6
38 0 7
38 3 3
38 4 1
38 5 2
38 6 1
38 10 6
38 11 10
38 12 7
38 15 2
38 16 7
38 17 7
38 19 8
38 21 5
38 22 9
38 25 5
38 26 1
38 29 10
38 30 10
38 31 9
38 32 5
38 34 8
38 35 10
38 36 4
38 37 2
39 1 1
39 3 2
39 4 5
39 6 4
39 7 2
39 9 2
39 10 9
39 13 6
39 14 3
39 15 8
39 16 9
39 17 9
39 20 6
39 22 3
39 23 9
39 25 4
39 27 7
39 28 8
39 30 4
39 31 4
39 32 5
39 33 1
39 34 7
39 35 8
39 36 10
39 38 1
40 0 8
40 1 9
40 2 10
40 4 9
40 5 1
40 8 2
40 9 10
40 11 6
40 12 9
40 13 9
40 14 5
40 16 10
40 18 8
40 19 9
40 20 5
40 21 2
40 22 6
40 23 1
40 24 8
40 26 6
40 28 3
40 30 10
40 31 9
40 32 5
40 35 4
40 37 4
40 38 4
40 39 2
41 0 1
41 1 1
41 2 1
41 3 5
41 4 4
41 8 7
41 10 7
41 11 3
41 12 4
41 13 5
41 15 5
41 17 8
41 18 1
41 19 3
41 22 7
41 24 5
41 25 10
41 26 1
41 27 4
41 29 4
41 31 4
41 32 6
41 33 9
41 34 5
41 35 8
41 36 2
41 37 4
41 38 5
41 40 8
42 1 7
42 4 4
42 5 3
42 6 9
42 9 5
42 10 8
42 12 8
42 14 7
42 17 9
42 19 5
42 20 6
42 21 5
42 22 2
42 23 10
42 25 6
42 27 6
42 28 5
42 29 7
42 30 6
42 31 5
42 32 3
42 33 6
42 35 10
42 36 3
42 38 6
42 39 2
42 40 6
42 41 4
43 0 1
43 1 6
43 2 4
43 4 1
43 5 3
43 6 6
43 7 2
43 9 6
43 11 6
43 14 5
43 15 3
43 19 4
43 20 1
43 21 9
43 23 9
43 24 5
43 25 6
43 26 5
43 29 7
43 31 9
43 32 9
43 33 6
43 34 1
43 35 6
43 37 5
43 38 5
43 40 5
43 41 10
44 0 5
44 1 4
44 2 2
44 3 2
44 4 9
44 6 4
44 7 7
44 8 10
44 9 2
44 10 8
44 11 4
44 12 8
44 14 5
44 15 6
44 16 4
44 17 9
44 19 5
44 20 7
44 23 6
44 25 2
44 26 3
44 30 2
44 31 2
44 32 2
44 33 5
44 34 7
44 37 7
44 39 5
44 41 3
44 43 6
45 0 7
45 1 9
45 2 2
45 3 10
45 7 8
45 8 9
45 9 3
45 10 8
45 12 10
45 13 7
45 14 10
45 15 2
45 17 8
45 18 6
45 19 9
45 20 6
45 21 9
45 22 7
45 23 6
45 24 4
45 26 1
45 27 3
45 28 5
45 29 2
45 31 4
45 32 8
45 33 5
45 34 3
45 35 4
45 36 7
45 37 10
45 39 8
45 40 4
45 41 6
45 42 4
45 43 9
46 1 2
46 2 4
46 3 6
46 4 4
46 6 7
46 7 7
46 8 6
46 9 8
46 10 10
46 11 6
46 12 5
46 13 9
46 14 7
46 15 1
46 16 3
46 17 6
46 18 7
46 19 8
46 20 10
46 21 10
46 22 1
46 23 7
46 25 1
46 30 3
46 31 6
46 33 3
46 34 3
46 35 4
46 36 10
46 37 8
46 38 3
46 39 9
46 40 6
46 41 5
46 42 6
46 43 10
46 44 1
47 0 5
47 2 9
47 4 8
47 5 3
47 9 4
47 10 4
47 15 10
47 16 4
47 18 3
47 19 3
47 20 4
47 21 5
47 22 4
47 23 6
47 24 5
47 25 1
47 27 8
47 31 7
47 32 6
47 33 3
47 34 5
47 35 8
47 36 1
47 38 2
47 39 6
47 40 7
47 41 5
47 43 5
47 44 2
47 45 6
48 0 9
48 2 8
48 3 3
48 4 8
48 5 7
48 6 2
48 7 2
48 9 5
48 10 7
48 11 1
48 12 6
48 13 1
48 15 5
48 16 10
48 17 10
48 18 3
48 20 6
48 21 7
48 22 10
48 24 4
48 25 1
48 26 7
48 27 9
48 28 10
48 29 5
48 30 3
48 31 5
48 33 1
48 34 7
48 35 10
48 36 5
48 37 5
48 38 9
48 39 10
48 40 10
48 41 1
48 44 8
48 46 4
48 47 7
49 0 6
49 1 10
49 2 2
49 3 9
49 4 7
49 5 1
49 6 7
49 11 7
49 12 3
49 13 2
49 15 9
49 16 4
49 18 7
49 23 9
49 24 5
49 25 2
49 26 3
49 27 8
49 28 7
49 29 4
49 32 3
49 34 4
49 35 10
49 36 10
49 37 5
49 38 9
49 39 6
49 41 5
49 42 10
49 43 5
49 44 1
49 47 3
49 48 7
50 0 3
50 1 6
50 2 7
50 3 8
50 5 8
50 6 4
50 9 10
50 10 8
50 12 5
50 13 10
50 14 4
50 15 6
50 16 5
50 17 5
50 22 5
50 24 1
50 26 10
50 27 7
50 28 8
50 29 8
50 30 10
50 31 3
50 33 1
50 35 10
50 37 9
50 38 9
50 40 8
50 42 6
50 43 5
50 44 7
50 45 5
50 46 7
50 47 8
50 49 4
51 0 3
51 1 10
51 2 2
51 5 10
51 6 8
51 7 1
51 9 6
51 10 8
51 11 9
51 13 6
51 14 4
51 16 1
51 17 1
51 18 3
51 19 3
51 20 9
51 22 3
51 23 4
51 25 5
51 26 4
51 27 3
51 30 3
51 31 10
51 32 4
51 34 4
51 35 8
51 38 7
51 39 10
51 40 10
51 42 1
51 43 4
51 44 6
51 45 5
51 46 4
51 48 5
51 49 5
51 50 1
52 0 8
52 1 2
52 4 2
52 5 4
52 6 10
52 8 2
52 10 2
52 12 2
52 13 9
52 14 10
52 15 5
52 16 6
52 17 10
52 18 4
52 20 10
52 21 6
52 24 8
52 26 7
52 27 8
52 28 3
52 29 6
52 30 4
52 33 6
52 35 10
52 36 10
52 37 4
52 41 1
52 43 5
52 44 7
52 47 7
52 48 6
52 49 6
52 50 10
52 51 7
53 0 5
53 1 4
53 2 5
53 3 8
53 4 2
53 5 9
53 6 10
53 7 5
53 8 5
53 9 3
53 15 8
53 16 8
53 17 9
53 19 8
53 21 7
53 22 6
53 23 6
53 24 7
53 26 4
53 27 2
53 28 5
53 29 6
53 30 3
53 31 6
53 32 4
53 33 7
53 34 1
53 35 3
53 36 4
53 37 2
53 39 2
53 40 1
53 41 10
53 43 9
53 48 2
53 51 2
54 0 5
54 1 10
54 2 6
54 4 5
54 7 4
54 10 2
54 11 6
54 14 8
54 15 9
54 17 3
54 19 3
54 21 2
54 22 2
54 25 8
54 26 9
54 27 6
54 28 9
54 29 2
54 31 4
54 32 1
54 35 4
54 37 1
54 38 8
54 40 5
54 41 10
54 42 8
54 43 5
54 44 10
54 45 5
54 46 4
54 47 6
54 48 8
54 49 10
54 50 6
54 53 1
55 1 10
55 2 2
55 3 7
55 5 4
55 6 1
55 7 5
55 8 6
55 10 5
55 11 8
55 12 9
55 13 5
55 14 3
55 15 6
55 18 6
55 19 5
55 21 2
55 23 7
55 24 5
55 25 6
55 26 5
55 27 9
55 28 10
55 30 8
55 31 6
55 32 5
55 34 4
55 35 7
55 37 3
55 38 6
55 43 4
55 44 7
55 45 5
55 46 1
55 47 10
55 49 5
55 51 7
55 52 7
55 53 5
56 0 6
56 1 1
56 2 5
56 6 7
56 8 3
56 11 2
56 12 6
56 13 1
56 14 5
56 15 8
56 16 1
56 18 5
56 19 7
56 20 2
56 21 8
56 22 8
56 23 8
56 24 6
56 25 5
56 27 6
56 28 9
56 29 4
56 30 5
56 31 8
56 33 7
56 35 5
56 38 4
56 39 4
56 40 5
56 41 10
56 42 7
56 43 7
56 44 3
56 45 4
56 46 9
56 47 5
56 48 9
56 49 7
56 50 1
56 52 2
56 54 10
56 55 3
57 0 8
57 2 4
57 3 9
57 4 9
57 7 9
57 8 7
57 10 3
57 11 5
57 14 5
57 15 5
57 17 5
57 20 2
57 21 2
57 22 9
57 23 3
57 26 8
57 27 10
57 29 8
57 31 9
57 32 9
57 33 6
57 35 9
57 36 4
57 37 7
57 39 7
57 40 3
57 41 3
57 42 10
57 43 10
57 44 5
57 48 10
57 49 8
57 50 2
57 51 10
57 52 5
57 53 7
57 54 3
57 56 2
58 0 7
58 2 8
58 3 5
58 4 9
58 6 3
58 8 7
58 9 8
58 10 6
58 11 3
58 12 7
58 13 9
58 14 5
58 15 2
58 16 5
58 17 10
58 19 10
58 20 6
58 21 10
58 23 1
58 24 4
58 25 7
58 26 7
58 27 1
58 28 10
58 29 5
58 30 8
58 33 1
58 34 2
58 35 8
58 36 2
58 37 6
58 39 6
58 40 3
58 41 4
58 42 5
58 43 9
58 44 10
58 45 7
58 46 6
58 47 8
58 48 5
58 50 2
58 51 1
58 54 1
58 56 6
58 57 7
59 0 2
59 1 6
59 2 5
59 3 8
59 4 4
59 5 9
59 6 10
59 10 7
59 11 5
59 13 4
59 14 7
59 15 1
59 16 4
59 17 3
59 18 8
59 19 2
59 20 9
59 22 3
59 24 5
59 25 9
59 26 5
59 27 2
59 28 4
59 30 7
59 31 7
59 32 6
59 34 10
59 35 9
59 36 2
59 37 9
59 39 1
59 44 5
59 45 2
59 47 6
59 48 5
59 49 1
59 50 5
59 51 3
59 52 2
59 54 6
59 56 10
59 57 3
59 58 9
